17	4
13	15	13	16	
0	0	0	0	0	3	2	3	4	
7	6	0	0	0	3	6	8	9	
10	0	8	0	0	3	7	11	17	
2	4	0	0	0	3	5	7	8	
3	5	0	0	0	3	17	17	17	
50	6	0	0	0	2	7	10	
25	0	0	0	10	2	12	14	
75	0	9	0	0	3	13	15	17	
125	9	0	0	0	3	10	12	14	
250	0	0	1	0	3	15	16	17	
225	0	0	0	3	2	14	17	
225	0	5	0	0	3	16	17	17	
3	0	0	2	0	3	17	17	17	
5	0	0	0	10	2	17	17	
1	0	0	0	8	1	17	
6	6	0	0	0	2	17	17	
0	0	0	0	0	0	
